Minimize
 obj: 0 X_0_1
Subject To
 out_0:
  + 1 X_0_1 + 1 X_0_2 + 1 X_0_3 + 1 X_0_4 + 1 X_0_5 + 1 X_0_6 + 1 X_0_7 + 1 X_0_8
  + 1 X_0_9
  = 1
 in_0:
  + 1 X_1_0 + 1 X_2_0 + 1 X_3_0 + 1 X_4_0 + 1 X_5_0 + 1 X_6_0 + 1 X_7_0 + 1 X_8_0
  + 1 X_9_0
  = 1
 out_1:
  + 1 X_1_0 + 1 X_1_2 + 1 X_1_3 + 1 X_1_4 + 1 X_1_5 + 1 X_1_6 + 1 X_1_7 + 1 X_1_8
  + 1 X_1_9
  = 1
 in_1:
  + 1 X_0_1 + 1 X_2_1 + 1 X_3_1 + 1 X_4_1 + 1 X_5_1 + 1 X_6_1 + 1 X_7_1 + 1 X_8_1
  + 1 X_9_1
  = 1
 out_2:
  + 1 X_2_0 + 1 X_2_1 + 1 X_2_3 + 1 X_2_4 + 1 X_2_5 + 1 X_2_6 + 1 X_2_7 + 1 X_2_8
  + 1 X_2_9
  = 1
 in_2:
  + 1 X_0_2 + 1 X_1_2 + 1 X_3_2 + 1 X_4_2 + 1 X_5_2 + 1 X_6_2 + 1 X_7_2 + 1 X_8_2
  + 1 X_9_2
  = 1
 out_3:
  + 1 X_3_0 + 1 X_3_1 + 1 X_3_2 + 1 X_3_4 + 1 X_3_5 + 1 X_3_6 + 1 X_3_7 + 1 X_3_8
  + 1 X_3_9
  = 1
 in_3:
  + 1 X_0_3 + 1 X_1_3 + 1 X_2_3 + 1 X_4_3 + 1 X_5_3 + 1 X_6_3 + 1 X_7_3 + 1 X_8_3
  + 1 X_9_3
  = 1
 out_4:
  + 1 X_4_0 + 1 X_4_1 + 1 X_4_2 + 1 X_4_3 + 1 X_4_5 + 1 X_4_6 + 1 X_4_7 + 1 X_4_8
  + 1 X_4_9
  = 1
 in_4:
  + 1 X_0_4 + 1 X_1_4 + 1 X_2_4 + 1 X_3_4 + 1 X_5_4 + 1 X_6_4 + 1 X_7_4 + 1 X_8_4
  + 1 X_9_4
  = 1
 out_5:
  + 1 X_5_0 + 1 X_5_1 + 1 X_5_2 + 1 X_5_3 + 1 X_5_4 + 1 X_5_6 + 1 X_5_7 + 1 X_5_8
  + 1 X_5_9
  = 1
 in_5:
  + 1 X_0_5 + 1 X_1_5 + 1 X_2_5 + 1 X_3_5 + 1 X_4_5 + 1 X_6_5 + 1 X_7_5 + 1 X_8_5
  + 1 X_9_5
  = 1
 out_6:
  + 1 X_6_0 + 1 X_6_1 + 1 X_6_2 + 1 X_6_3 + 1 X_6_4 + 1 X_6_5 + 1 X_6_7 + 1 X_6_8
  + 1 X_6_9
  = 1
 in_6:
  + 1 X_0_6 + 1 X_1_6 + 1 X_2_6 + 1 X_3_6 + 1 X_4_6 + 1 X_5_6 + 1 X_7_6 + 1 X_8_6
  + 1 X_9_6
  = 1
 out_7:
  + 1 X_7_0 + 1 X_7_1 + 1 X_7_2 + 1 X_7_3 + 1 X_7_4 + 1 X_7_5 + 1 X_7_6 + 1 X_7_8
  + 1 X_7_9
  = 1
 in_7:
  + 1 X_0_7 + 1 X_1_7 + 1 X_2_7 + 1 X_3_7 + 1 X_4_7 + 1 X_5_7 + 1 X_6_7 + 1 X_8_7
  + 1 X_9_7
  = 1
 out_8:
  + 1 X_8_0 + 1 X_8_1 + 1 X_8_2 + 1 X_8_3 + 1 X_8_4 + 1 X_8_5 + 1 X_8_6 + 1 X_8_7
  + 1 X_8_9
  = 1
 in_8:
  + 1 X_0_8 + 1 X_1_8 + 1 X_2_8 + 1 X_3_8 + 1 X_4_8 + 1 X_5_8 + 1 X_6_8 + 1 X_7_8
  + 1 X_9_8
  = 1
 out_9:
  + 1 X_9_0 + 1 X_9_1 + 1 X_9_2 + 1 X_9_3 + 1 X_9_4 + 1 X_9_5 + 1 X_9_6 + 1 X_9_7
  + 1 X_9_8
  = 1
 in_9:
  + 1 X_0_9 + 1 X_1_9 + 1 X_2_9 + 1 X_3_9 + 1 X_4_9 + 1 X_5_9 + 1 X_6_9 + 1 X_7_9
  + 1 X_8_9
  = 1
 mtz_1_2:
  + 1 U1 - 1 U2 + 9 X_1_2
  <= 8
 mtz_1_3:
  + 1 U1 - 1 U3 + 9 X_1_3
  <= 8
 mtz_1_4:
  + 1 U1 - 1 U4 + 9 X_1_4
  <= 8
 mtz_1_5:
  + 1 U1 - 1 U5 + 9 X_1_5
  <= 8
 mtz_1_6:
  + 1 U1 - 1 U6 + 9 X_1_6
  <= 8
 mtz_1_7:
  + 1 U1 - 1 U7 + 9 X_1_7
  <= 8
 mtz_1_8:
  + 1 U1 - 1 U8 + 9 X_1_8
  <= 8
 mtz_1_9:
  + 1 U1 - 1 U9 + 9 X_1_9
  <= 8
 mtz_2_1:
  + 1 U2 - 1 U1 + 9 X_2_1
  <= 8
 mtz_2_3:
  + 1 U2 - 1 U3 + 9 X_2_3
  <= 8
 mtz_2_4:
  + 1 U2 - 1 U4 + 9 X_2_4
  <= 8
 mtz_2_5:
  + 1 U2 - 1 U5 + 9 X_2_5
  <= 8
 mtz_2_6:
  + 1 U2 - 1 U6 + 9 X_2_6
  <= 8
 mtz_2_7:
  + 1 U2 - 1 U7 + 9 X_2_7
  <= 8
 mtz_2_8:
  + 1 U2 - 1 U8 + 9 X_2_8
  <= 8
 mtz_2_9:
  + 1 U2 - 1 U9 + 9 X_2_9
  <= 8
 mtz_3_1:
  + 1 U3 - 1 U1 + 9 X_3_1
  <= 8
 mtz_3_2:
  + 1 U3 - 1 U2 + 9 X_3_2
  <= 8
 mtz_3_4:
  + 1 U3 - 1 U4 + 9 X_3_4
  <= 8
 mtz_3_5:
  + 1 U3 - 1 U5 + 9 X_3_5
  <= 8
 mtz_3_6:
  + 1 U3 - 1 U6 + 9 X_3_6
  <= 8
 mtz_3_7:
  + 1 U3 - 1 U7 + 9 X_3_7
  <= 8
 mtz_3_8:
  + 1 U3 - 1 U8 + 9 X_3_8
  <= 8
 mtz_3_9:
  + 1 U3 - 1 U9 + 9 X_3_9
  <= 8
 mtz_4_1:
  + 1 U4 - 1 U1 + 9 X_4_1
  <= 8
 mtz_4_2:
  + 1 U4 - 1 U2 + 9 X_4_2
  <= 8
 mtz_4_3:
  + 1 U4 - 1 U3 + 9 X_4_3
  <= 8
 mtz_4_5:
  + 1 U4 - 1 U5 + 9 X_4_5
  <= 8
 mtz_4_6:
  + 1 U4 - 1 U6 + 9 X_4_6
  <= 8
 mtz_4_7:
  + 1 U4 - 1 U7 + 9 X_4_7
  <= 8
 mtz_4_8:
  + 1 U4 - 1 U8 + 9 X_4_8
  <= 8
 mtz_4_9:
  + 1 U4 - 1 U9 + 9 X_4_9
  <= 8
 mtz_5_1:
  + 1 U5 - 1 U1 + 9 X_5_1
  <= 8
 mtz_5_2:
  + 1 U5 - 1 U2 + 9 X_5_2
  <= 8
 mtz_5_3:
  + 1 U5 - 1 U3 + 9 X_5_3
  <= 8
 mtz_5_4:
  + 1 U5 - 1 U4 + 9 X_5_4
  <= 8
 mtz_5_6:
  + 1 U5 - 1 U6 + 9 X_5_6
  <= 8
 mtz_5_7:
  + 1 U5 - 1 U7 + 9 X_5_7
  <= 8
 mtz_5_8:
  + 1 U5 - 1 U8 + 9 X_5_8
  <= 8
 mtz_5_9:
  + 1 U5 - 1 U9 + 9 X_5_9
  <= 8
 mtz_6_1:
  + 1 U6 - 1 U1 + 9 X_6_1
  <= 8
 mtz_6_2:
  + 1 U6 - 1 U2 + 9 X_6_2
  <= 8
 mtz_6_3:
  + 1 U6 - 1 U3 + 9 X_6_3
  <= 8
 mtz_6_4:
  + 1 U6 - 1 U4 + 9 X_6_4
  <= 8
 mtz_6_5:
  + 1 U6 - 1 U5 + 9 X_6_5
  <= 8
 mtz_6_7:
  + 1 U6 - 1 U7 + 9 X_6_7
  <= 8
 mtz_6_8:
  + 1 U6 - 1 U8 + 9 X_6_8
  <= 8
 mtz_6_9:
  + 1 U6 - 1 U9 + 9 X_6_9
  <= 8
 mtz_7_1:
  + 1 U7 - 1 U1 + 9 X_7_1
  <= 8
 mtz_7_2:
  + 1 U7 - 1 U2 + 9 X_7_2
  <= 8
 mtz_7_3:
  + 1 U7 - 1 U3 + 9 X_7_3
  <= 8
 mtz_7_4:
  + 1 U7 - 1 U4 + 9 X_7_4
  <= 8
 mtz_7_5:
  + 1 U7 - 1 U5 + 9 X_7_5
  <= 8
 mtz_7_6:
  + 1 U7 - 1 U6 + 9 X_7_6
  <= 8
 mtz_7_8:
  + 1 U7 - 1 U8 + 9 X_7_8
  <= 8
 mtz_7_9:
  + 1 U7 - 1 U9 + 9 X_7_9
  <= 8
 mtz_8_1:
  + 1 U8 - 1 U1 + 9 X_8_1
  <= 8
 mtz_8_2:
  + 1 U8 - 1 U2 + 9 X_8_2
  <= 8
 mtz_8_3:
  + 1 U8 - 1 U3 + 9 X_8_3
  <= 8
 mtz_8_4:
  + 1 U8 - 1 U4 + 9 X_8_4
  <= 8
 mtz_8_5:
  + 1 U8 - 1 U5 + 9 X_8_5
  <= 8
 mtz_8_6:
  + 1 U8 - 1 U6 + 9 X_8_6
  <= 8
 mtz_8_7:
  + 1 U8 - 1 U7 + 9 X_8_7
  <= 8
 mtz_8_9:
  + 1 U8 - 1 U9 + 9 X_8_9
  <= 8
 mtz_9_1:
  + 1 U9 - 1 U1 + 9 X_9_1
  <= 8
 mtz_9_2:
  + 1 U9 - 1 U2 + 9 X_9_2
  <= 8
 mtz_9_3:
  + 1 U9 - 1 U3 + 9 X_9_3
  <= 8
 mtz_9_4:
  + 1 U9 - 1 U4 + 9 X_9_4
  <= 8
 mtz_9_5:
  + 1 U9 - 1 U5 + 9 X_9_5
  <= 8
 mtz_9_6:
  + 1 U9 - 1 U6 + 9 X_9_6
  <= 8
 mtz_9_7:
  + 1 U9 - 1 U7 + 9 X_9_7
  <= 8
 mtz_9_8:
  + 1 U9 - 1 U8 + 9 X_9_8
  <= 8
 obj1:
  + 600 X_0_1 + 696 X_0_2 + 403 X_0_3 + 250 X_0_4 + 471 X_0_5 + 658 X_0_6 + 338 X_0_7 + 776 X_0_8
  + 557 X_0_9 + 600 X_1_0 + 902 X_1_2 + 722 X_1_3 + 469 X_1_4 + 961 X_1_5 + 824 X_1_6 + 848 X_1_7
  + 387 X_1_8 + 955 X_1_9 + 696 X_2_0 + 902 X_2_1 + 294 X_2_3 + 530 X_2_4 + 447 X_2_5 + 83 X_2_6
  + 484 X_2_7 + 725 X_2_8 + 287 X_2_9 + 403 X_3_0 + 722 X_3_1 + 294 X_3_2 + 274 X_3_4 + 287 X_3_5
  + 265 X_3_6 + 244 X_3_7 + 677 X_3_8 + 233 X_3_9 + 250 X_4_0 + 469 X_4_1 + 530 X_4_2 + 274 X_4_3
  + 492 X_4_5 + 471 X_4_6 + 382 X_4_7 + 545 X_4_8 + 498 X_4_9 + 471 X_5_0 + 961 X_5_1 + 447 X_5_2
  + 287 X_5_3 + 492 X_5_4 + 470 X_5_6 + 132 X_5_7 + 963 X_5_8 + 167 X_5_9 + 658 X_6_0 + 824 X_6_1
  + 83 X_6_2 + 265 X_6_3 + 471 X_6_4 + 470 X_6_5 + 484 X_6_7 + 643 X_6_8 + 324 X_6_9 + 338 X_7_0
  + 848 X_7_1 + 484 X_7_2 + 244 X_7_3 + 382 X_7_4 + 132 X_7_5 + 484 X_7_6 + 888 X_7_8 + 249 X_7_9
  + 776 X_8_0 + 387 X_8_1 + 725 X_8_2 + 677 X_8_3 + 545 X_8_4 + 963 X_8_5 + 643 X_8_6 + 888 X_8_7
  + 890 X_8_9 + 557 X_9_0 + 955 X_9_1 + 287 X_9_2 + 233 X_9_3 + 498 X_9_4 + 167 X_9_5 + 324 X_9_6
  + 249 X_9_7 + 890 X_9_8
  <= 1
 obj2:
  + 844 X_0_1 + 917 X_0_2 + 979 X_0_3 + 59 X_0_4 + 426 X_0_5 + 955 X_0_6 + 899 X_0_7 + 1054 X_0_8
  + 407 X_0_9 + 844 X_1_0 + 96 X_1_2 + 261 X_1_3 + 786 X_1_4 + 500 X_1_5 + 745 X_1_6 + 87 X_1_7
  + 420 X_1_8 + 459 X_1_9 + 917 X_2_0 + 96 X_2_1 + 306 X_2_3 + 860 X_2_4 + 548 X_2_5 + 828 X_2_6
  + 135 X_2_7 + 468 X_2_8 + 521 X_2_9 + 979 X_3_0 + 261 X_3_1 + 306 X_3_2 + 920 X_3_4 + 712 X_3_5
  + 570 X_3_6 + 178 X_3_7 + 161 X_3_8 + 649 X_3_9 + 59 X_4_0 + 786 X_4_1 + 860 X_4_2 + 920 X_4_3
  + 379 X_4_5 + 910 X_4_6 + 841 X_4_7 + 996 X_4_8 + 353 X_4_9 + 426 X_5_0 + 500 X_5_1 + 548 X_5_2
  + 712 X_5_3 + 379 X_5_4 + 939 X_5_6 + 577 X_5_7 + 837 X_5_8 + 92 X_5_9 + 955 X_6_0 + 745 X_6_1
  + 828 X_6_2 + 570 X_6_3 + 910 X_6_4 + 939 X_6_5 + 696 X_6_7 + 465 X_6_8 + 847 X_6_9 + 899 X_7_0
  + 87 X_7_1 + 135 X_7_2 + 178 X_7_3 + 841 X_7_4 + 577 X_7_5 + 696 X_7_6 + 339 X_7_8 + 529 X_7_9
  + 1054 X_8_0 + 420 X_8_1 + 468 X_8_2 + 161 X_8_3 + 996 X_8_4 + 837 X_8_5 + 465 X_8_6 + 339 X_8_7
  + 764 X_8_9 + 407 X_9_0 + 459 X_9_1 + 521 X_9_2 + 649 X_9_3 + 353 X_9_4 + 92 X_9_5 + 847 X_9_6
  + 529 X_9_7 + 764 X_9_8
  <= 2
 obj3:
  + 104 X_0_1 + 62 X_0_2 + 546 X_0_3 + 537 X_0_4 + 491 X_0_5 + 889 X_0_6 + 852 X_0_7 + 94 X_0_8
  + 873 X_0_9 + 104 X_1_0 + 67 X_1_2 + 602 X_1_3 + 639 X_1_4 + 593 X_1_5 + 951 X_1_6 + 913 X_1_7
  + 15 X_1_8 + 912 X_1_9 + 62 X_2_0 + 67 X_2_1 + 538 X_2_3 + 578 X_2_4 + 531 X_2_5 + 886 X_2_6
  + 848 X_2_7 + 66 X_2_8 + 854 X_2_9 + 546 X_3_0 + 602 X_3_1 + 538 X_3_2 + 442 X_3_4 + 425 X_3_5
  + 349 X_3_6 + 311 X_3_7 + 604 X_3_8 + 344 X_3_9 + 537 X_4_0 + 639 X_4_1 + 578 X_4_2 + 442 X_4_3
  + 46 X_4_5 + 612 X_4_6 + 589 X_4_7 + 631 X_4_8 + 737 X_4_9 + 491 X_5_0 + 593 X_5_1 + 531 X_5_2
  + 425 X_5_3 + 46 X_5_4 + 622 X_5_6 + 596 X_5_7 + 584 X_5_8 + 734 X_5_9 + 889 X_6_0 + 951 X_6_1
  + 886 X_6_2 + 349 X_6_3 + 612 X_6_4 + 622 X_6_5 + 38 X_6_7 + 952 X_6_8 + 226 X_6_9 + 852 X_7_0
  + 913 X_7_1 + 848 X_7_2 + 311 X_7_3 + 589 X_7_4 + 596 X_7_5 + 38 X_7_6 + 914 X_7_8 + 212 X_7_9
  + 94 X_8_0 + 15 X_8_1 + 66 X_8_2 + 604 X_8_3 + 631 X_8_4 + 584 X_8_5 + 952 X_8_6 + 914 X_8_7
  + 917 X_8_9 + 873 X_9_0 + 912 X_9_1 + 854 X_9_2 + 344 X_9_3 + 737 X_9_4 + 734 X_9_5 + 226 X_9_6
  + 212 X_9_7 + 917 X_9_8
  <= 3
 obj4:
  + 827 X_0_1 + 479 X_0_2 + 698 X_0_3 + 474 X_0_4 + 431 X_0_5 + 380 X_0_6 + 659 X_0_7 + 432 X_0_8
  + 113 X_0_9 + 827 X_1_0 + 499 X_1_2 + 146 X_1_3 + 895 X_1_4 + 596 X_1_5 + 830 X_1_6 + 343 X_1_7
  + 430 X_1_8 + 866 X_1_9 + 479 X_2_0 + 499 X_2_1 + 438 X_2_3 + 395 X_2_4 + 97 X_2_5 + 335 X_2_6
  + 203 X_2_7 + 384 X_2_8 + 460 X_2_9 + 698 X_3_0 + 146 X_3_1 + 438 X_3_2 + 825 X_3_4 + 528 X_3_5
  + 749 X_3_6 + 338 X_3_7 + 286 X_3_8 + 747 X_3_9 + 474 X_4_0 + 895 X_4_1 + 395 X_4_2 + 825 X_4_3
  + 299 X_4_5 + 100 X_4_6 + 578 X_4_7 + 688 X_4_8 + 374 X_4_9 + 431 X_5_0 + 596 X_5_1 + 97 X_5_2
  + 528 X_5_3 + 299 X_5_4 + 238 X_5_6 + 296 X_5_7 + 434 X_5_8 + 393 X_5_9 + 380 X_6_0 + 830 X_6_1
  + 335 X_6_2 + 749 X_6_3 + 100 X_6_4 + 238 X_6_5 + 531 X_6_7 + 594 X_6_8 + 287 X_6_9 + 659 X_7_0
  + 343 X_7_1 + 203 X_7_2 + 338 X_7_3 + 578 X_7_4 + 296 X_7_5 + 531 X_7_6 + 429 X_7_8 + 655 X_7_9
  + 432 X_8_0 + 430 X_8_1 + 384 X_8_2 + 286 X_8_3 + 688 X_8_4 + 434 X_8_5 + 594 X_8_6 + 429 X_8_7
  + 503 X_8_9 + 113 X_9_0 + 866 X_9_1 + 460 X_9_2 + 747 X_9_3 + 374 X_9_4 + 393 X_9_5 + 287 X_9_6
  + 655 X_9_7 + 503 X_9_8
  <= 4
 obj5:
  + 605 X_0_1 + 375 X_0_2 + 424 X_0_3 + 200 X_0_4 + 361 X_0_5 + 596 X_0_6 + 206 X_0_7 + 257 X_0_8
  + 494 X_0_9 + 605 X_1_0 + 486 X_1_2 + 876 X_1_3 + 748 X_1_4 + 439 X_1_5 + 290 X_1_6 + 650 X_1_7
  + 571 X_1_8 + 893 X_1_9 + 375 X_2_0 + 486 X_2_1 + 796 X_2_3 + 379 X_2_4 + 49 X_2_5 + 303 X_2_6
  + 559 X_2_7 + 560 X_2_8 + 413 X_2_9 + 424 X_3_0 + 876 X_3_1 + 796 X_3_2 + 541 X_3_4 + 775 X_3_5
  + 970 X_3_6 + 246 X_3_7 + 304 X_3_8 + 853 X_3_9 + 200 X_4_0 + 748 X_4_1 + 379 X_4_2 + 541 X_4_3
  + 391 X_4_5 + 664 X_4_6 + 379 X_4_7 + 451 X_4_8 + 315 X_4_9 + 361 X_5_0 + 439 X_5_1 + 49 X_5_2
  + 775 X_5_3 + 391 X_5_4 + 276 X_5_6 + 535 X_5_7 + 528 X_5_8 + 455 X_5_9 + 596 X_6_0 + 290 X_6_1
  + 303 X_6_2 + 970 X_6_3 + 664 X_6_4 + 276 X_6_5 + 724 X_6_7 + 681 X_6_8 + 706 X_6_9 + 206 X_7_0
  + 650 X_7_1 + 559 X_7_2 + 246 X_7_3 + 379 X_7_4 + 535 X_7_5 + 724 X_7_6 + 105 X_7_8 + 690 X_7_9
  + 257 X_8_0 + 571 X_8_1 + 560 X_8_2 + 304 X_8_3 + 451 X_8_4 + 528 X_8_5 + 681 X_8_6 + 105 X_8_7
  + 751 X_8_9 + 494 X_9_0 + 893 X_9_1 + 413 X_9_2 + 853 X_9_3 + 315 X_9_4 + 455 X_9_5 + 706 X_9_6
  + 690 X_9_7 + 751 X_9_8
  <= 5
 obj6:
  + 273 X_0_1 + 784 X_0_2 + 440 X_0_3 + 182 X_0_4 + 79 X_0_5 + 186 X_0_6 + 274 X_0_7 + 462 X_0_8
  + 509 X_0_9 + 273 X_1_0 + 535 X_1_2 + 528 X_1_3 + 426 X_1_4 + 198 X_1_5 + 232 X_1_6 + 230 X_1_7
  + 263 X_1_8 + 474 X_1_9 + 784 X_2_0 + 535 X_2_1 + 1035 X_2_3 + 886 X_2_4 + 705 X_2_5 + 646 X_2_6
  + 734 X_2_7 + 338 X_2_8 + 575 X_2_9 + 440 X_3_0 + 528 X_3_1 + 1035 X_3_2 + 572 X_3_4 + 473 X_3_5
  + 609 X_3_6 + 303 X_3_7 + 792 X_3_8 + 934 X_3_9 + 182 X_4_0 + 426 X_4_1 + 886 X_4_2 + 572 X_4_3
  + 233 X_4_5 + 240 X_4_6 + 455 X_4_7 + 548 X_4_8 + 484 X_4_9 + 79 X_5_0 + 198 X_5_1 + 705 X_5_2
  + 473 X_5_3 + 233 X_5_4 + 135 X_5_6 + 254 X_5_7 + 386 X_5_8 + 462 X_5_9 + 186 X_6_0 + 232 X_6_1
  + 646 X_6_2 + 609 X_6_3 + 240 X_6_4 + 135 X_6_5 + 374 X_6_7 + 309 X_6_8 + 327 X_6_9 + 274 X_7_0
  + 230 X_7_1 + 734 X_7_2 + 303 X_7_3 + 455 X_7_4 + 254 X_7_5 + 374 X_7_6 + 493 X_7_8 + 678 X_7_9
  + 462 X_8_0 + 263 X_8_1 + 338 X_8_2 + 792 X_8_3 + 548 X_8_4 + 386 X_8_5 + 309 X_8_6 + 493 X_8_7
  + 311 X_8_9 + 509 X_9_0 + 474 X_9_1 + 575 X_9_2 + 934 X_9_3 + 484 X_9_4 + 462 X_9_5 + 327 X_9_6
  + 678 X_9_7 + 311 X_9_8
  <= 6
 obj7:
  + 197 X_0_1 + 941 X_0_2 + 691 X_0_3 + 799 X_0_4 + 748 X_0_5 + 337 X_0_6 + 715 X_0_7 + 490 X_0_8
  + 286 X_0_9 + 197 X_1_0 + 747 X_1_2 + 494 X_1_3 + 644 X_1_4 + 550 X_1_5 + 314 X_1_6 + 678 X_1_7
  + 465 X_1_8 + 90 X_1_9 + 941 X_2_0 + 747 X_2_1 + 256 X_2_3 + 402 X_2_4 + 223 X_2_5 + 811 X_2_6
  + 883 X_2_7 + 836 X_2_8 + 664 X_2_9 + 691 X_3_0 + 494 X_3_1 + 256 X_3_2 + 385 X_3_4 + 74 X_3_5
  + 605 X_3_6 + 770 X_3_7 + 665 X_3_8 + 409 X_3_9 + 799 X_4_0 + 644 X_4_1 + 402 X_4_2 + 385 X_4_3
  + 437 X_4_5 + 545 X_4_6 + 494 X_4_7 + 505 X_4_8 + 598 X_4_9 + 748 X_5_0 + 550 X_5_1 + 223 X_5_2
  + 74 X_5_3 + 437 X_5_4 + 678 X_5_6 + 841 X_5_7 + 739 X_5_8 + 462 X_5_9 + 337 X_6_0 + 314 X_6_1
  + 811 X_6_2 + 605 X_6_3 + 545 X_6_4 + 678 X_6_5 + 380 X_6_7 + 157 X_6_8 + 360 X_6_9 + 715 X_7_0
  + 678 X_7_1 + 883 X_7_2 + 770 X_7_3 + 494 X_7_4 + 841 X_7_5 + 380 X_7_6 + 224 X_7_8 + 699 X_7_9
  + 490 X_8_0 + 465 X_8_1 + 836 X_8_2 + 665 X_8_3 + 505 X_8_4 + 739 X_8_5 + 157 X_8_6 + 224 X_8_7
  + 499 X_8_9 + 286 X_9_0 + 90 X_9_1 + 664 X_9_2 + 409 X_9_3 + 598 X_9_4 + 462 X_9_5 + 360 X_9_6
  + 699 X_9_7 + 499 X_9_8
  <= 7
Bounds
 1 <= U1 <= 9
 1 <= U2 <= 9
 1 <= U3 <= 9
 1 <= U4 <= 9
 1 <= U5 <= 9
 1 <= U6 <= 9
 1 <= U7 <= 9
 1 <= U8 <= 9
 1 <= U9 <= 9
Binary
 X_0_1
 X_0_2
 X_0_3
 X_0_4
 X_0_5
 X_0_6
 X_0_7
 X_0_8
 X_0_9
 X_1_0
 X_1_2
 X_1_3
 X_1_4
 X_1_5
 X_1_6
 X_1_7
 X_1_8
 X_1_9
 X_2_0
 X_2_1
 X_2_3
 X_2_4
 X_2_5
 X_2_6
 X_2_7
 X_2_8
 X_2_9
 X_3_0
 X_3_1
 X_3_2
 X_3_4
 X_3_5
 X_3_6
 X_3_7
 X_3_8
 X_3_9
 X_4_0
 X_4_1
 X_4_2
 X_4_3
 X_4_5
 X_4_6
 X_4_7
 X_4_8
 X_4_9
 X_5_0
 X_5_1
 X_5_2
 X_5_3
 X_5_4
 X_5_6
 X_5_7
 X_5_8
 X_5_9
 X_6_0
 X_6_1
 X_6_2
 X_6_3
 X_6_4
 X_6_5
 X_6_7
 X_6_8
 X_6_9
 X_7_0
 X_7_1
 X_7_2
 X_7_3
 X_7_4
 X_7_5
 X_7_6
 X_7_8
 X_7_9
 X_8_0
 X_8_1
 X_8_2
 X_8_3
 X_8_4
 X_8_5
 X_8_6
 X_8_7
 X_8_9
 X_9_0
 X_9_1
 X_9_2
 X_9_3
 X_9_4
 X_9_5
 X_9_6
 X_9_7
 X_9_8
End
